\LP file generated from the problem `Slots selection' by the
\Xpress Builder Component Library Xpress BCL

Minimize
obj: 1.00003e+006 WR_(0) + 1.00006e+006 WR_(1) + 1.00005e+006 WR_(2) + 1.00003e+006 WR_(3) + 
1.00003e+006 WR_(4) + 1.00009e+006 WR_(5) + 1.00005e+006 WR_(6) + 1.00003e+006 WR_(7) + 
76 WR_(8) + 100 WR_(9) + 76 WR_(10) + 100 WR_(11) + 1.00003e+006 WR_(12) + 1.00009e+006 WR_(13) + 
1.00005e+006 WR_(14) + 1.00003e+006 WR_(15) + 76 WR_(16) + 100 WR_(17) + 76 WR_(18) + 
100 WR_(19) + 1.00003e+006 WR_(20) + 1.00009e+006 WR_(21) + 1.00005e+006 WR_(22) + 
1.00003e+006 WR_(23) + 1.00003e+006 WR_(24) + 1.00006e+006 WR_(25) + 1.00005e+006 WR_(26) + 
1.00003e+006 WR_(27) + 1.00003e+006 WR_(28) + 1.00009e+006 WR_(29) + 1.00005e+006 WR_(30) + 
1.00003e+006 WR_(31)

Subject To
slot_28: = 0
slot_27: = 0
slot_26: = 0
slot_25: = 0
slot_24: = 0
slot_23: = 0
slot_22: = 0
slot_21: = 0
slot_20: = 0
slot_19: = 0
slot_18: = 0
slot_17: = 0
slot_16: = 0
slot_15: = 0
slot_14: = 0
slot_13: = 0
slot_12: = 0
slot_11: = 0
slot_10: = 0
slot_9: = 0
slot_8: WR_(7) + WR_(15) + WR_(23) + WR_(31) = 1
slot_7: WR_(6) + WR_(14) + WR_(22) + WR_(30) = 1
slot_6: WR_(5) + WR_(13) + WR_(21) + WR_(29) = 1
slot_5: WR_(4) + WR_(12) + WR_(20) + WR_(28) = 1
slot_4: WR_(3) + WR_(9) + WR_(11) + WR_(17) + WR_(19) + WR_(27) = 1
slot_3: WR_(2) + WR_(8) + WR_(10) + WR_(16) + WR_(18) + WR_(26) = 1
slot_2: WR_(1) + WR_(9) + WR_(11) + WR_(17) + WR_(19) + WR_(25) = 1
slot_1: WR_(0) + WR_(8) + WR_(10) + WR_(16) + WR_(18) + WR_(24) = 1
slot: = 0

Bounds

Binaries
WR_(0) WR_(1) WR_(2) WR_(3) WR_(4) WR_(5) WR_(6) WR_(7) WR_(8) WR_(9) WR_(10) 
WR_(11) WR_(12) WR_(13) WR_(14) WR_(15) WR_(16) WR_(17) WR_(18) WR_(19) WR_(20) 
WR_(21) WR_(22) WR_(23) WR_(24) WR_(25) WR_(26) WR_(27) WR_(28) WR_(29) WR_(30) 
WR_(31) 

End
